solution status: optimal solution found
objective value:                                   78
shell_i_$_156                                       1 	(obj:0)
shell_j_$_155                                       1 	(obj:0)
shell_j_$_196                                       1 	(obj:0)
shell_i_$_239                                       1 	(obj:0)
shell_j_$_245                                       1 	(obj:0)
shell_i_$_74                                        1 	(obj:0)
shell_j_$_86                                        1 	(obj:0)
shell_j_$_85                                        1 	(obj:0)
shell_i_$_243                                       1 	(obj:0)
shell_i_$_78                                        1 	(obj:0)
shell_i_$_80                                        1 	(obj:0)
shell_i_$_188                                       1 	(obj:0)
shell_i_$_198                                       1 	(obj:0)
shell_j_$_163                                       1 	(obj:0)
shell_i_$_79                                        1 	(obj:0)
shell_j_$_84                                        1 	(obj:0)
shell_i_$_241                                       1 	(obj:0)
shell_i_$_161                                       1 	(obj:0)
shell_i_$_172                                       1 	(obj:0)
shell_i_$_195                                       1 	(obj:0)
shell_i_$_204                                       1 	(obj:0)
shell_i_$_96                                        1 	(obj:0)
shell_i_$_213                                       1 	(obj:0)
shell_j_$_81                                        1 	(obj:0)
shell_i_$_279                                       1 	(obj:0)
shell_i_$_164                                       1 	(obj:0)
shell_i_$_244                                       1 	(obj:0)
shell_i_$_157                                       1 	(obj:0)
shell_i_$_83                                        1 	(obj:0)
shell_j_$_162                                       1 	(obj:0)
shell_i_$_277                                       1 	(obj:0)
shell_i_$_147                                       1 	(obj:0)
shell_i_$_205                                       1 	(obj:0)
shell_i_$_236                                       1 	(obj:0)
shell_i_$_237                                       1 	(obj:0)
shell_i_$_87                                        1 	(obj:0)
shell_j_$_278                                       1 	(obj:0)
shell_i_$_200                                       1 	(obj:0)
shell_i_$_203                                       1 	(obj:0)
shell_i_$_97                                        1 	(obj:0)
shell_i_$_229                                       1 	(obj:0)
shell_i_$_246                                       1 	(obj:0)
shell_i_$_254                                       1 	(obj:0)
shell_j_$_75                                        1 	(obj:0)
shell_i_$_197                                       1 	(obj:0)
shell_i_$_270                                       1 	(obj:0)
shell_i_$_82                                        1 	(obj:0)
shell_j_$_82                                        1 	(obj:0)
shell_i_$_202                                       1 	(obj:0)
shell_j_$_154                                       1 	(obj:0)
shell_i_$_238                                       1 	(obj:0)
shell_i_$_159                                       1 	(obj:0)
$_204_z                                            18 	(obj:0)
$_243_x                                            12 	(obj:0)
$_243_y                                             2 	(obj:0)
$_96_x                                             12 	(obj:0)
$_96_y                                             10 	(obj:0)
$_96_z                                             19 	(obj:0)
$_243_z                                            17 	(obj:0)
$_239_y                                             8 	(obj:0)
$_213_x                                            12 	(obj:0)
$_213_y                                             4 	(obj:0)
$_213_z                                            21 	(obj:0)
$_239_z                                            16 	(obj:0)
$_78_x                                             12 	(obj:0)
$_81_x                                             12 	(obj:0)
$_81_y                                            -12 	(obj:0)
$_81_z                                             15 	(obj:0)
$_78_y                                              4 	(obj:0)
$_78_z                                             14 	(obj:0)
$_279_x                                            12 	(obj:0)
$_279_y                                             4 	(obj:0)
$_279_z                                            15 	(obj:0)
$_155_y                                           -12 	(obj:0)
$_155_z                                            17 	(obj:0)
$_164_x                                            12 	(obj:0)
$_164_y                                             9 	(obj:0)
$_164_z                                            20 	(obj:0)
$_80_x                                             12 	(obj:0)
$_80_y                                             -4 	(obj:0)
$_244_x                                            12 	(obj:0)
$_244_y                                            -6 	(obj:0)
$_244_z                                             8 	(obj:0)
$_80_z                                              4 	(obj:0)
$_245_x                                            12 	(obj:0)
$_157_x                                            12 	(obj:0)
$_157_y                                            11 	(obj:0)
$_157_z                                            22 	(obj:0)
$_245_y                                            12 	(obj:0)
$_188_x                                            12 	(obj:0)
$_83_x                                             12 	(obj:0)
$_83_y                                              9 	(obj:0)
$_83_z                                             21 	(obj:0)
$_188_z                                            19 	(obj:0)
$_162_x                                            12 	(obj:0)
$_162_y                                           -12 	(obj:0)
$_162_z                                            14 	(obj:0)
$_245_z                                            16 	(obj:0)
$_156_z                                            18 	(obj:0)
$_277_x                                            12 	(obj:0)
$_277_y                                            -4 	(obj:0)
$_277_z                                             7 	(obj:0)
$_198_x                                            12 	(obj:0)
$_198_y                                             8 	(obj:0)
$_147_x                                            12 	(obj:0)
$_147_z                                            16 	(obj:0)
$_198_z                                            18 	(obj:0)
$_156_x                                            12 	(obj:0)
$_205_x                                            12 	(obj:0)
$_205_y                                             6 	(obj:0)
$_205_z                                            17 	(obj:0)
$_74_x                                             12 	(obj:0)
$_163_x                                            10 	(obj:0)
$_236_x                                            12 	(obj:0)
$_236_y                                            -7 	(obj:0)
$_236_z                                            10 	(obj:0)
$_163_y                                            12 	(obj:0)
$_163_z                                            22 	(obj:0)
$_237_x                                            12 	(obj:0)
$_237_y                                            -8 	(obj:0)
$_237_z                                            10 	(obj:0)
$_74_y                                             -4 	(obj:0)
$_74_z                                              8 	(obj:0)
$_87_x                                             12 	(obj:0)
$_87_y                                             10 	(obj:0)
$_87_z                                             22 	(obj:0)
$_79_x                                             12 	(obj:0)
$_79_y                                             -4 	(obj:0)
$_278_x                                            12 	(obj:0)
$_278_y                                            12 	(obj:0)
$_278_z                                            18 	(obj:0)
$_79_z                                             10 	(obj:0)
$_196_x                                            12 	(obj:0)
$_200_x                                            12 	(obj:0)
$_200_y                                            -4 	(obj:0)
$_200_z                                            15 	(obj:0)
$_196_y                                           -12 	(obj:0)
$_84_x                                              8 	(obj:0)
$_203_x                                            12 	(obj:0)
$_203_y                                           -10 	(obj:0)
$_203_z                                            12 	(obj:0)
$_84_y                                             12 	(obj:0)
$_84_z                                             17 	(obj:0)
$_97_x                                             12 	(obj:0)
$_97_y                                              1 	(obj:0)
$_97_z                                             16 	(obj:0)
$_86_x                                             12 	(obj:0)
$_86_y                                             12 	(obj:0)
$_229_x                                            12 	(obj:0)
$_229_y                                             4 	(obj:0)
$_229_z                                            22 	(obj:0)
$_241_x                                            12 	(obj:0)
$_246_x                                            12 	(obj:0)
$_246_y                                             9 	(obj:0)
$_246_z                                            16 	(obj:0)
$_241_z                                            18 	(obj:0)
$_86_z                                             17 	(obj:0)
$_254_x                                            12 	(obj:0)
$_254_y                                             8 	(obj:0)
$_254_z                                            23 	(obj:0)
$_196_z                                            13 	(obj:0)
$_161_x                                            12 	(obj:0)
$_75_x                                             12 	(obj:0)
$_75_y                                            -12 	(obj:0)
$_75_z                                             19 	(obj:0)
$_161_y                                            -4 	(obj:0)
$_161_z                                            13 	(obj:0)
$_197_x                                            12 	(obj:0)
$_197_y                                             7 	(obj:0)
$_197_z                                            18 	(obj:0)
$_156_y                                             9 	(obj:0)
$_85_x                                              8 	(obj:0)
$_270_x                                            12 	(obj:0)
$_270_y                                             8 	(obj:0)
$_270_z                                            19 	(obj:0)
$_172_x                                            12 	(obj:0)
$_172_y                                             2 	(obj:0)
$_82_x                                             12 	(obj:0)
$_82_y                                             12 	(obj:0)
$_82_z                                             20 	(obj:0)
$_172_z                                            19 	(obj:0)
$_85_y                                             12 	(obj:0)
$_202_x                                            12 	(obj:0)
$_202_z                                            15 	(obj:0)
$_85_z                                             22 	(obj:0)
$_195_x                                            12 	(obj:0)
$_154_x                                            12 	(obj:0)
$_154_y                                           -12 	(obj:0)
$_154_z                                            16 	(obj:0)
$_195_y                                           -11 	(obj:0)
$_195_z                                            14 	(obj:0)
$_238_x                                            12 	(obj:0)
$_238_y                                             8 	(obj:0)
$_238_z                                            20 	(obj:0)
$_155_x                                            12 	(obj:0)
$_239_x                                            12 	(obj:0)
$_159_x                                            12 	(obj:0)
$_159_y                                            -4 	(obj:0)
$_159_z                                            12 	(obj:0)
$_204_x                                            12 	(obj:0)
$_204_y                                            10 	(obj:0)
x258                                                2 	(obj:1)
x260                                                1 	(obj:1)
x264                                                1 	(obj:1)
x267                                                1 	(obj:1)
x270                                                1 	(obj:1)
x276                                                2 	(obj:1)
x278                                                2 	(obj:1)
x286                                                2 	(obj:1)
x302                                                2 	(obj:1)
x303                                                2 	(obj:1)
x311                                                2 	(obj:1)
x317                                                1 	(obj:1)
x325                                                2 	(obj:1)
x326                                                1 	(obj:1)
x327                                                2 	(obj:1)
x339                                                1 	(obj:1)
x345                                                1 	(obj:1)
x350                                                1 	(obj:1)
x353                                                1 	(obj:1)
x354                                                2 	(obj:1)
x360                                                2 	(obj:1)
x368                                                2 	(obj:1)
x369                                                2 	(obj:1)
x378                                                1 	(obj:1)
x380                                                1 	(obj:1)
x381                                                1 	(obj:1)
x383                                                2 	(obj:1)
x387                                                2 	(obj:1)
x391                                                2 	(obj:1)
x392                                                1 	(obj:1)
x408                                                1 	(obj:1)
x411                                                1 	(obj:1)
x420                                                1 	(obj:1)
x422                                                1 	(obj:1)
x425                                                1 	(obj:1)
x438                                                2 	(obj:1)
x439                                                2 	(obj:1)
x449                                                2 	(obj:1)
x453                                                2 	(obj:1)
x458                                                2 	(obj:1)
x459                                                1 	(obj:1)
x461                                                1 	(obj:1)
x464                                                1 	(obj:1)
x470                                                2 	(obj:1)
x471                                                2 	(obj:1)
x482                                                2 	(obj:1)
x488                                                2 	(obj:1)
x492                                                2 	(obj:1)
x495                                                2 	(obj:1)
x503                                                2 	(obj:1)
